
Gurobi 10.0.1 (linux64) logging started Sun 13 Aug 2023 06:33:28 AM CDT

Set parameter LogFile to value "/home/dlcole3/graph_abstraction/plasmoexamples/SHP_serial/SHP_reserve_requirements/gurobi_logs/logfile18.log"
Set parameter NodefileStart to value 0.0005
Set parameter TimeLimit to value 36000
Gurobi Optimizer version 10.0.1 build v10.0.1rc0 (linux64)

CPU model: Intel(R) Xeon(R) CPU E5-2698 v4 @ 2.20GHz, instruction set [SSE2|AVX|AVX2]
Thread count: 40 physical cores, 80 logical processors, using up to 8 threads


Warning: excessive time spent in model updates.
Consider calling update less frequently.

Optimize a model with 1105538 rows, 641709 columns and 4644125 nonzeros
Model fingerprint: 0xc3c18b57
Variable types: 599982 continuous, 41727 integer (41727 binary)
Coefficient statistics:
  Matrix range     [5e-02, 2e+04]
  Objective range  [2e-01, 8e+04]
  Bounds range     [5e-02, 2e+04]
  RHS range        [8e-20, 7e+03]
Presolve removed 263315 rows and 110170 columns (presolve time = 5s) ...
Presolve removed 277020 rows and 116723 columns (presolve time = 10s) ...
Presolve removed 279347 rows and 119752 columns (presolve time = 15s) ...
Presolve removed 285161 rows and 124410 columns (presolve time = 20s) ...
Presolve removed 291763 rows and 124599 columns (presolve time = 25s) ...
Presolve removed 293033 rows and 125367 columns (presolve time = 30s) ...
Presolve removed 293033 rows and 125477 columns (presolve time = 35s) ...
Presolve removed 293103 rows and 125517 columns (presolve time = 40s) ...
Sparsify removed 120779 nonzeros (3%)
Presolve removed 293103 rows and 124947 columns
Presolve time: 41.36s
Presolved: 812435 rows, 516762 columns, 3890149 nonzeros
Variable types: 483429 continuous, 33333 integer (33292 binary)

Deterministic concurrent LP optimizer: primal simplex, dual simplex, and barrier
Showing barrier log only...

Root barrier log...

Elapsed ordering time = 5s
Elapsed ordering time = 16s
Elapsed ordering time = 20s
Elapsed ordering time = 25s
Elapsed ordering time = 31s
Elapsed ordering time = 35s
Elapsed ordering time = 40s
Elapsed ordering time = 43s
Elapsed ordering time = 45s
Elapsed ordering time = 50s
Elapsed ordering time = 56s
Elapsed ordering time = 60s
Elapsed ordering time = 65s
Ordering time: 67.80s

Barrier statistics:
 Dense cols : 122
 AA' NZ     : 2.252e+07
 Factor NZ  : 3.260e+08 (roughly 3.0 GB of memory)
 Factor Ops : 1.451e+12 (roughly 12 seconds per iteration)
 Threads    : 5

                  Objective                Residual
Iter       Primal          Dual         Primal    Dual     Compl     Time
   0  -2.21043066e+11 -1.80698824e+13  1.22e+04 2.12e+04  1.14e+08   131s
   1  -1.53796257e+11 -1.33811259e+13  8.68e+03 1.09e+05  7.25e+07   149s
   2  -1.09514993e+11 -8.33621367e+12  6.28e+03 1.94e+04  4.67e+07   161s
   3  -1.43763032e+10 -3.65152094e+12  1.08e+03 6.57e-01  8.67e+06   173s
   4  -5.32534512e+09 -1.35563622e+12  5.86e+02 2.15e-01  3.83e+06   186s
   5   3.97277515e+09 -6.66426071e+11  1.13e+02 1.14e-01  8.90e+05   198s
   6   5.26483296e+09 -2.61388575e+11  4.27e+01 2.46e-02  2.82e+05   212s
   7   4.77645071e+09 -8.46098034e+10  1.35e+01 5.12e-03  7.72e+04   227s
   8   2.58174542e+09 -2.79371575e+10  3.54e+00 2.50e-04  2.13e+04   240s
   9   1.15737784e+09 -1.54657882e+10  1.51e+00 3.99e-04  1.07e+04   253s
  10   2.40837020e+08 -2.66263728e+09  1.95e-01 5.21e-07  1.74e+03   270s
  11   8.58402961e+07 -5.63253745e+08  2.30e-03 1.10e-07  3.79e+02   283s
  12   7.40977540e+07 -1.11082604e+08  2.85e-05 6.04e-05  1.08e+02   300s
  13   6.25367800e+07 -3.46253980e+06  2.90e-06 9.20e-05  3.85e+01   319s
  14   5.65105711e+07  2.53884339e+07  1.41e-06 4.01e-05  1.81e+01   337s
  15   5.32982935e+07  3.97233424e+07  1.16e-06 1.69e-05  7.91e+00   353s
  16   5.18820145e+07  4.51727600e+07  7.99e-07 7.29e-06  3.91e+00   367s
  17   5.05279778e+07  4.71156128e+07  4.92e-07 3.21e-06  1.99e+00   383s
  18   4.99539444e+07  4.79424425e+07  3.22e-07 1.70e-06  1.17e+00   399s
  19   4.95989702e+07  4.82445896e+07  2.21e-07 1.16e-06  7.89e-01   413s
  20   4.94226068e+07  4.83557815e+07  1.68e-07 9.65e-07  6.22e-01   426s
  21   4.92416463e+07  4.85916634e+07  1.16e-07 5.38e-07  3.79e-01   439s
  22   4.91448513e+07  4.86550762e+07  8.98e-08 4.16e-07  2.85e-01   453s
  23   4.90339890e+07  4.87158423e+07  5.91e-08 2.95e-07  1.85e-01   466s
  24   4.89956048e+07  4.87627756e+07  4.66e-08 2.01e-07  1.36e-01   479s
  25   4.89719748e+07  4.87846555e+07  3.91e-08 1.57e-07  1.09e-01   492s
  26   4.89537275e+07  4.88094722e+07  3.23e-08 1.10e-07  8.41e-02   506s
  27   4.89282895e+07  4.88245179e+07  2.45e-08 7.97e-08  6.05e-02   523s
  28   4.88943899e+07  4.88512161e+07  3.69e-08 2.49e-08  2.52e-02   542s
  29   4.88820928e+07  4.88589633e+07  5.10e-08 1.13e-08  1.35e-02   561s
  30   4.88730702e+07  4.88611809e+07  6.34e-08 7.89e-09  6.93e-03   579s
  31   4.88726537e+07  4.88621623e+07  6.38e-08 1.00e-08  6.12e-03   594s
  32   4.88683888e+07  4.88641159e+07  5.96e-08 1.15e-08  2.49e-03   609s
  33   4.88668656e+07  4.88654487e+07  2.09e-08 7.48e-09  8.26e-04   626s
  34   4.88659828e+07  4.88659354e+07  3.60e-08 2.41e-08  2.77e-05   642s
  35   4.88659609e+07  4.88659607e+07  4.67e-09 2.39e-08  1.15e-07   656s
  36   4.88659599e+07  4.88659607e+07  4.83e-05 3.24e-08  5.32e-08   669s
  37   4.88659634e+07  4.88659607e+07  4.72e-05 1.59e-08  3.94e-08   682s
  38   4.88659633e+07  4.88659607e+07  4.59e-05 1.25e-08  3.84e-08   695s
  39   4.88659632e+07  4.88659607e+07  4.53e-05 1.78e-08  3.78e-08   709s
  40   4.88659631e+07  4.88659607e+07  4.48e-05 1.65e-08  3.74e-08   722s
  41   4.88659626e+07  4.88659607e+07  6.06e-05 9.62e-08  2.98e-08   735s
  42   4.88659624e+07  4.88659607e+07  5.30e-05 4.77e-08  2.33e-08   748s
  43   4.88659628e+07  4.88659607e+07  8.37e-05 2.86e-08  1.88e-08   762s
  44   4.88659621e+07  4.88659607e+07  6.59e-05 3.05e-08  1.47e-08   775s
  45   4.88659619e+07  4.88659607e+07  6.34e-05 2.28e-08  1.41e-08   789s
  46   4.88659619e+07  4.88659607e+07  6.34e-05 2.19e-08  1.41e-08   802s
  47   4.88659619e+07  4.88659607e+07  6.12e-05 7.90e-08  1.48e-08   815s
  48   4.88659594e+07  4.88659607e+07  5.76e-05 3.77e-08  2.16e-09   829s
  49   4.88659594e+07  4.88659607e+07  5.75e-05 3.80e-08  2.17e-09   842s
  50   4.88659596e+07  4.88659607e+07  5.39e-05 6.74e-08  2.21e-09   856s
  51   4.88659595e+07  4.88659607e+07  5.27e-05 6.76e-08  2.13e-09   870s
  52   4.88659622e+07  4.88659607e+07  3.07e-05 3.45e-08  1.09e-09   883s

Barrier solved model in 52 iterations and 883.18 seconds (798.90 work units)
Optimal objective 4.88659622e+07


Root crossover log...

  314777 DPushes remaining with DInf 0.0000000e+00               885s
  106735 DPushes remaining with DInf 0.0000000e+00               888s
   69574 DPushes remaining with DInf 0.0000000e+00               891s
   25640 DPushes remaining with DInf 0.0000000e+00               896s
    8027 DPushes remaining with DInf 0.0000000e+00               900s
     349 DPushes remaining with DInf 0.0000000e+00               905s
       0 DPushes remaining with DInf 0.0000000e+00               906s

   20520 PPushes remaining with PInf 1.7387583e-04               906s
    2999 PPushes remaining with PInf 0.0000000e+00               911s
       0 PPushes remaining with PInf 0.0000000e+00               912s

  Push phase complete: Pinf 0.0000000e+00, Dinf 5.0984131e-07    913s


Root simplex log...

Iteration    Objective       Primal Inf.    Dual Inf.      Time
  157063    4.8865961e+07   0.000000e+00   0.000000e+00    913s
  157063    4.8865961e+07   0.000000e+00   0.000000e+00    915s
Waiting for other threads to finish...         982s
Waiting for other threads to finish...        1048s
Concurrent spin time: 139.63s (can be avoided by choosing Method=3)

Solved with barrier

Root relaxation: objective 4.886596e+07, 157063 iterations, 1008.71 seconds (794.79 work units)
Total elapsed time = 1063.86s
Total elapsed time = 1068.95s
Total elapsed time = 1073.29s

    Nodes    |    Current Node    |     Objective Bounds      |     Work
 Expl Unexpl |  Obj  Depth IntInf | Incumbent    BestBd   Gap | It/Node Time

     0     0 4.8866e+07    0  444          - 4.8866e+07      -     - 1089s
H    0     0                    4.937685e+07 4.8866e+07  1.03%     - 1104s

Explored 1 nodes (157271 simplex iterations) in 1104.87 seconds (871.27 work units)
Thread count was 8 (of 80 available processors)

Solution count 2: 4.93769e+07 4.93769e+07 

Optimal solution found (tolerance 5.00e-02)
Best objective 4.937685383379e+07, best bound 4.886596074143e+07, gap 1.0347%

User-callback calls 160053, time in user-callback 0.50 sec
